p cep 20 75
1 3
8 13
5 6
7 12
5 13
17 20
15 16
13 17
4 12
1 6
7 16
11 14
18 19
3 7
6 17
7 11
5 8
6 14
1 2
7 20
8 14
6 7
2 9
12 13
5 12
14 18
5 18
13 16
8 20
4 13
1 5
2 13
13 20
6 15
16 18
18 20
11 13
2 6
6 18
9 14
12 14
3 13
5 11
1 13
6 11
8 11
17 19
4 14
7 18
2 10
9 10
6 12
11 12
2 17
3 5
4 11
7 8
17 18
3 12
4 6
1 12
6 8
8 12
13 14
5 7
7 13
3 8
5 14
1 8
5 20
10 14
6 13
1 7
3 4
2 4
